200
750
599
598
597
594
586
585
582
581
579
574
574
572
571
567
566
564
557
556
550
550
549
548
547
544
537
535
531
530
517
513
511
508
505
503
500
498
496
493
491
485
479
476
476
475
471
470
469
469
468
464
463
463
461
460
459
456
447
440
439
438
434
434
433
432
432
427
425
425
424
422
422
413
403
395
391
390
388
385
385
384
383
381
381
380
372
372
371
371
369
368
367
365
361
359
354
354
351
343
342
342
340
334
327
326
323
322
321
318
318
318
313
309
308
307
305
302
301
298
295
294
292
291
291
288
283
281
280
279
277
266
265
265
261
260
254
254
253
252
249
249
247
245
239
238
238
233
219
218
217
217
213
211
209
207
202
201
197
193
189
188
185
183
182
172
171
169
168
166
164
160
159
158
155
155
153
152
146
145
141
141
130
128
125
121
119
117
117
110
110
107
107
100
98
97
92
86
84
82
78
76
